SDVRPTW/Cordeau2001/PR19.vrp
NAME: PR19
COMMENT: Based on Cordeau and Laporte (2001).
TYPE: SDVRPTW
EDGE_WEIGHT_TYPE: EUC_2D
DIMENSION: 217
VEHICLES: 24
NODE_COORD_SECTION
1	-16.492	-3.464
2	83.081	-17.816
3	50.372	7.709
4	-52.576	2.002
5	-39.685	38.171
6	-19.183	-45.148
7	-33.582	77.936
8	-18.182	91.876
9	-45.154	-55.219
10	30.408	-4.572
11	-73.322	4.419
12	3.607	7.501
13	-95.233	35.046
14	-21.246	10.272
15	-2.496	20.929
16	30.676	-19.086
17	24.591	-37.866
18	10.425	-60.907
19	90.692	-33.936
20	43.073	-2.924
21	39.679	35.138
22	-19.623	5.505
23	-17.834	15.631
24	28.259	-19.708
25	-9.985	90.167
26	-61.023	-35.034
27	-41.888	2.106
28	-16.15	39.722
29	-43.341	4.871
30	32.397	-11.572
31	90.875	-27.155
32	60.193	0.214
33	-60.577	9.521
34	-28.363	-19.72
35	52.185	-34.674
36	-65.106	61.945
37	-13.0	-32.41
38	-25.5	-17.505
39	4.944	76.404
40	-18.207	97.51
41	0.842	61.102
42	-16.553	22.748
43	39.966	-39.844
44	18.03	16.01
45	-75.25	59.186
46	-58.881	-1.428
47	37.549	5.212
48	-31.311	-35.522
49	13.525	61.719
50	-55.634	33.759
51	30.341	46.661
52	-26.91	-12.115
53	-4.797	-11.993
54	39.435	-26.801
55	74.689	-9.857
56	-21.899	-33.807
57	-2.039	14.075
58	29.309	-5.408
59	-45.935	48.926
60	64.795	-3.589
61	-21.198	-42.328
62	-25.165	-53.003
63	45.514	-76.337
64	14.392	29.437
65	-68.439	0.317
66	50.5	-11.096
67	-22.394	-13.745
68	18.03	-78.595
69	-9.399	39.172
70	56.567	-43.518
71	-82.501	-6.323
72	-31.152	-26.05
73	-28.882	16.229
74	-6.427	-0.11
75	-15.253	24.371
76	8.295	3.833
77	-1.385	-12.097
78	-55.017	-0.586
79	4.736	-42.163
80	-7.233	11.523
81	-1.44	11.2
82	-4.816	-24.194
83	-42.401	-1.758
84	5.981	40.881
85	48.517	-21.79
86	-41.876	-41.919
87	-51.636	-4.407
88	-55.273	-48.853
89	-27.094	22.418
90	-0.934	58.923
91	-45.642	48.645
92	-45.367	-88.293
93	-18.066	-18.64
94	59.509	86.481
95	-26.819	-13.904
96	-17.822	25.342
97	55.164	-13.739
98	-62.299	-52.118
99	-7.294	33.16
100	80.884	53.357
101	43.085	-9.717
102	-39.069	50.055
103	-27.142	-20.642
104	-61.267	36.121
105	47.595	-30.164
106	-30.286	13.867
107	-13.867	11.676
108	-83.142	-31.775
109	-24.762	-38.818
110	-49.243	-4.987
111	23.291	-28.381
112	13.489	-32.697
113	-12.732	0.867
114	-91.016	-18.201
115	52.307	-15.839
116	47.388	20.465
117	-62.585	-13.684
118	-67.34	43.512
119	-13.33	-37.268
120	-49.384	10.876
121	-28.217	-22.821
122	69.635	-14.581
123	0.616	19.513
124	53.827	-57.684
125	52.85	28.961
126	-38.147	45.514
127	42.78	-42.81
128	-12.811	-13.416
129	-48.834	-10.089
130	-8.636	-11.206
131	72.626	-6.879
132	-66.73	-33.362
133	17.706	6.879
134	-44.379	-64.172
135	-25.195	-27.411
136	-65.485	28.015
137	28.784	-12.848
138	-21.204	0.543
139	68.732	9.192
140	-33.026	14.313
141	-11.267	30.835
142	-92.688	15.833
143	-37.109	-56.323
144	34.149	-23.962
145	-59.54	13.391
146	-7.849	11.029
147	56.299	-44.635
148	-20.331	30.322
149	86.078	-14.954
150	31.201	4.633
151	-57.208	10.315
152	16.62	74.371
153	-15.234	5.42
154	-35.95	-43.951
155	-12.073	23.749
156	15.967	-1.685
157	-21.399	17.31
158	22.137	-26.88
159	6.873	-58.301
160	49.457	4.272
161	-11.334	-5.56
162	50.903	-35.571
163	-35.046	-41.058
164	-45.111	-47.046
165	-3.973	-16.51
166	-20.221	-1.562
167	-52.228	-12.25
168	-59.43	63.312
169	14.484	14.276
170	-38.757	43.207
171	7.977	-3.54
172	-50.226	-26.874
173	-13.593	27.325
174	-25.043	-27.826
175	66.571	-16.284
176	-59.369	-2.856
177	-3.717	14.88
178	-84.845	5.481
179	-26.343	-3.369
180	-1.074	31.531
181	-52.881	37.372
182	-2.606	-8.893
183	-56.757	71.478
184	-67.432	18.28
185	-22.052	-25.549
186	26.031	-19.226
187	23.676	-13.342
188	27.93	1.965
189	-99.506	64.618
190	4.999	-16.595
191	-35.803	-34.259
192	66.705	-49.902
193	2.783	9.723
194	-35.083	-31.342
195	30.249	-7.568
196	-6.573	-15.35
197	17.157	46.906
198	-4.34	46.32
199	-28.815	-42.419
200	-77.509	2.087
201	-39.801	16.296
202	15.009	1.154
203	-32.544	-7.013
204	-42.01	-12.531
205	-33.698	-13.562
206	-10.26	-19.104
207	-3.04	-1.88
208	28.68	-41.412
209	35.797	-69.952
210	-49.683	-61.951
211	-66.827	31.494
212	-28.18	-73.029
213	-64.221	-16.107
214	36.279	-33.71
215	-53.467	6.854
216	-95.697	-50.623
217	70.813	-13.391
DEMAND_SECTION
1	0
2	6
3	21
4	16
5	12
6	6
7	4
8	15
9	12
10	18
11	25
12	22
13	22
14	7
15	21
16	3
17	15
18	9
19	3
20	23
21	13
22	16
23	1
24	15
25	23
26	4
27	22
28	8
29	9
30	5
31	23
32	9
33	12
34	4
35	10
36	5
37	23
38	21
39	9
40	7
41	12
42	5
43	2
44	2
45	22
46	25
47	11
48	9
49	23
50	13
51	12
52	6
53	6
54	4
55	23
56	22
57	1
58	13
59	1
60	12
61	19
62	3
63	13
64	10
65	11
66	6
67	17
68	6
69	14
70	12
71	13
72	25
73	17
74	11
75	21
76	16
77	1
78	25
79	24
80	14
81	14
82	3
83	4
84	9
85	13
86	25
87	15
88	8
89	2
90	1
91	20
92	6
93	2
94	14
95	16
96	3
97	7
98	3
99	2
100	11
101	1
102	18
103	2
104	23
105	16
106	16
107	11
108	21
109	11
110	13
111	13
112	23
113	2
114	7
115	16
116	20
117	12
118	11
119	3
120	20
121	11
122	20
123	9
124	15
125	3
126	11
127	19
128	24
129	15
130	4
131	20
132	13
133	13
134	18
135	23
136	18
137	3
138	10
139	3
140	12
141	18
142	17
143	25
144	14
145	22
146	13
147	5
148	2
149	16
150	8
151	1
152	24
153	18
154	17
155	1
156	21
157	13
158	15
159	9
160	13
161	2
162	16
163	18
164	10
165	25
166	21
167	7
168	21
169	8
170	6
171	4
172	10
173	9
174	22
175	25
176	5
177	12
178	24
179	6
180	11
181	16
182	14
183	8
184	11
185	22
186	5
187	12
188	1
189	8
190	6
191	25
192	13
193	4
194	13
195	17
196	14
197	6
198	4
199	18
200	20
201	19
202	6
203	23
204	19
205	23
206	20
207	7
208	3
209	6
210	8
211	14
212	12
213	3
214	14
215	24
216	4
217	7
SERVICE_TIME_SECTION
1	0
2	24
3	3
4	25
5	18
6	4
7	10
8	4
9	13
10	12
11	24
12	21
13	19
14	24
15	9
16	23
17	2
18	18
19	16
20	13
21	8
22	7
23	5
24	22
25	20
26	16
27	11
28	2
29	4
30	20
31	3
32	21
33	10
34	2
35	18
36	10
37	13
38	20
39	8
40	24
41	16
42	16
43	6
44	19
45	17
46	3
47	19
48	5
49	8
50	16
51	23
52	15
53	4
54	5
55	6
56	14
57	7
58	4
59	21
60	10
61	22
62	25
63	25
64	13
65	11
66	11
67	19
68	11
69	19
70	20
71	23
72	2
73	18
74	22
75	19
76	2
77	25
78	12
79	9
80	11
81	5
82	20
83	4
84	15
85	12
86	5
87	2
88	7
89	13
90	20
91	16
92	18
93	12
94	17
95	19
96	11
97	6
98	12
99	6
100	21
101	1
102	7
103	3
104	12
105	21
106	9
107	11
108	17
109	7
110	10
111	3
112	13
113	13
114	11
115	10
116	5
117	15
118	16
119	1
120	2
121	22
122	3
123	14
124	7
125	10
126	12
127	6
128	12
129	5
130	6
131	7
132	16
133	11
134	14
135	7
136	22
137	17
138	20
139	15
140	15
141	1
142	10
143	11
144	14
145	22
146	18
147	19
148	17
149	21
150	15
151	21
152	24
153	16
154	10
155	25
156	11
157	20
158	25
159	5
160	8
161	17
162	1
163	21
164	8
165	7
166	5
167	2
168	23
169	22
170	2
171	23
172	7
173	17
174	20
175	25
176	10
177	3
178	8
179	6
180	19
181	19
182	17
183	3
184	15
185	15
186	24
187	16
188	16
189	16
190	14
191	18
192	5
193	13
194	14
195	4
196	12
197	17
198	4
199	4
200	13
201	5
202	7
203	22
204	7
205	6
206	20
207	24
208	5
209	22
210	15
211	15
212	3
213	16
214	6
215	16
216	14
217	13
TIME_WINDOW_SECTION
1	0	1000
2	244	463
3	287	596
4	120	309
5	259	615
6	158	344
7	242	483
8	236	476
9	188	547
10	101	351
11	219	412
12	137	472
13	199	483
14	188	490
15	157	472
16	178	488
17	173	415
18	143	418
19	203	521
20	64	360
21	138	421
22	240	574
23	79	304
24	190	374
25	172	497
26	174	495
27	227	419
28	206	521
29	144	372
30	182	449
31	161	473
32	294	650
33	280	508
34	90	417
35	274	487
36	145	460
37	124	369
38	137	484
39	122	381
40	188	454
41	240	504
42	206	506
43	176	378
44	262	502
45	156	486
46	98	437
47	290	627
48	63	328
49	248	582
50	151	447
51	183	470
52	157	368
53	99	426
54	253	479
55	257	555
56	207	535
57	86	350
58	155	372
59	93	429
60	170	493
61	160	427
62	114	294
63	169	423
64	138	352
65	171	497
66	178	505
67	60	353
68	276	539
69	269	610
70	292	482
71	93	387
72	130	473
73	206	519
74	244	571
75	207	547
76	176	363
77	163	506
78	185	395
79	109	391
80	110	441
81	228	465
82	285	525
83	234	567
84	102	439
85	202	384
86	226	546
87	160	353
88	220	451
89	219	525
90	237	438
91	229	546
92	190	491
93	254	479
94	293	639
95	142	415
96	195	524
97	198	381
98	126	384
99	278	604
100	93	341
101	268	459
102	283	477
103	232	526
104	165	388
105	67	289
106	160	509
107	74	255
108	265	451
109	125	332
110	199	387
111	262	516
112	271	507
113	183	368
114	100	381
115	207	393
116	135	436
117	201	452
118	239	569
119	284	636
120	273	592
121	251	553
122	64	307
123	97	302
124	115	327
125	269	573
126	169	443
127	186	432
128	118	323
129	129	476
130	147	396
131	239	419
132	253	464
133	296	627
134	130	336
135	256	550
136	275	563
137	160	495
138	261	553
139	137	429
140	78	417
141	64	321
142	250	530
143	74	340
144	139	480
145	63	383
146	231	553
147	73	284
148	135	318
149	211	515
150	254	492
151	286	511
152	286	496
153	221	413
154	123	348
155	236	577
156	153	448
157	169	420
158	272	556
159	288	611
160	160	496
161	94	291
162	97	436
163	93	446
164	93	281
165	166	475
166	213	556
167	240	481
168	83	374
169	225	414
170	250	602
171	158	403
172	242	539
173	125	322
174	88	309
175	193	436
176	148	342
177	175	511
178	233	591
179	164	482
180	100	430
181	225	430
182	110	407
183	182	436
184	64	394
185	287	474
186	299	599
187	109	363
188	150	483
189	277	544
190	293	539
191	75	278
192	213	440
193	101	380
194	190	488
195	113	464
196	271	572
197	293	593
198	72	346
199	141	492
200	292	546
201	121	431
202	193	469
203	259	507
204	65	405
205	92	273
206	64	259
207	184	381
208	128	465
209	229	424
210	262	556
211	211	543
212	146	428
213	117	382
214	247	557
215	108	359
216	249	547
217	248	475
CAPACITY_SECTION
1	125
2	125
3	125
4	125
5	150
6	150
7	150
8	150
9	175
10	175
11	175
12	175
13	200
14	200
15	200
16	200
17	225
18	225
19	225
20	225
21	250
22	250
23	250
24	250
VEHICLES_MAX_DURATION_SECTION
1	500
2	500
3	500
4	500
5	500
6	500
7	500
8	500
9	500
10	500
11	500
12	500
13	500
14	500
15	500
16	500
17	500
18	500
19	500
20	500
21	500
22	500
23	500
24	500
VEHICLES_ALLOWED_CLIENTS_SECTION
1	2	3	4	5	6	7	8	9	10	11	12	13	14	15	16	17	18	19	20	21	22	23	24	25	26	27	28	29	30	31	32	33	34	35	36	37	38	39	40	41	42	43	44	45	46	47	48	49	50	51	52	53	54	55	56	57	60	64	65	66	70	72	75	82	83	89	90	93	100	101	103	104	105	106	107	108	110	111	112	113	118	119	121	122	126	128	131	133	136	138	143	144	145	146	147	149	150	154	155	156	157	158	159	160	161	167	178	180	183	184	194	201	202	216
2	2	3	4	5	6	7	8	9	10	11	12	13	14	15	16	17	18	19	20	21	22	23	24	25	26	27	28	29	30	31	32	33	34	35	36	37	38	39	40	41	42	43	44	45	46	47	48	49	50	51	52	53	54	55	56	57	60	64	65	66	70	72	75	82	83	89	90	93	100	101	103	104	105	106	107	108	110	111	112	113	118	119	121	122	126	128	131	133	136	138	143	144	145	146	147	149	150	154	155	156	157	158	159	160	161	167	178	180	183	184	194	201	202	216
3	2	3	4	5	6	7	8	9	10	11	12	13	14	15	16	17	18	19	20	21	22	23	24	25	26	27	28	29	30	31	32	33	34	35	36	37	38	39	40	41	42	43	44	45	46	47	48	49	50	51	52	53	54	55	56	57	60	64	65	66	70	72	75	82	83	89	90	93	100	101	103	104	105	106	107	108	110	111	112	113	118	119	121	122	126	128	131	133	136	138	143	144	145	146	147	149	150	154	155	156	157	158	159	160	161	167	178	180	183	184	194	201	202	216
4	2	3	4	5	6	7	8	9	10	11	12	13	14	15	16	17	18	19	20	21	22	23	24	25	26	27	28	29	30	31	32	33	34	35	36	37	38	39	40	41	42	43	44	45	46	47	48	49	50	51	52	53	54	55	56	57	60	64	65	66	70	72	75	82	83	89	90	93	100	101	103	104	105	106	107	108	110	111	112	113	118	119	121	122	126	128	131	133	136	138	143	144	145	146	147	149	150	154	155	156	157	158	159	160	161	167	178	180	183	184	194	201	202	216
5	2	3	4	5	6	7	8	9	10	11	12	13	14	15	16	17	18	19	20	21	22	23	24	25	26	27	28	29	30	31	32	33	34	35	36	37	38	39	40	41	42	43	44	45	46	47	48	49	50	51	52	53	54	55	56	57	58	59	60	65	72	75	78	80	82	83	84	88	90	92	93	97	99	101	103	104	105	106	107	110	113	114	115	118	119	121	122	124	126	127	131	133	135	136	138	139	141	143	144	145	147	148	150	154	155	156	157	159	160	161	162	168	172	179	195	203	205	214
6	2	3	4	5	6	7	8	9	10	11	12	13	14	15	16	17	18	19	20	21	22	23	24	25	26	27	28	29	30	31	32	33	34	35	36	37	38	39	40	41	42	43	44	45	46	47	48	49	50	51	52	53	54	55	56	57	58	59	60	65	72	75	78	80	82	83	84	88	90	92	93	97	99	101	103	104	105	106	107	110	113	114	115	118	119	121	122	124	126	127	131	133	135	136	138	139	141	143	144	145	147	148	150	154	155	156	157	159	160	161	162	168	172	179	195	203	205	214
7	2	3	4	5	6	7	8	9	10	11	12	13	14	15	16	17	18	19	20	21	22	23	24	25	26	27	28	29	30	31	32	33	34	35	36	37	38	39	40	41	42	43	44	45	46	47	48	49	50	51	52	53	54	55	56	57	58	59	60	65	72	75	78	80	82	83	84	88	90	92	93	97	99	101	103	104	105	106	107	110	113	114	115	118	119	121	122	124	126	127	131	133	135	136	138	139	141	143	144	145	147	148	150	154	155	156	157	159	160	161	162	168	172	179	195	203	205	214
8	2	3	4	5	6	7	8	9	10	11	12	13	14	15	16	17	18	19	20	21	22	23	24	25	26	27	28	29	30	31	32	33	34	35	36	37	38	39	40	41	42	43	44	45	46	47	48	49	50	51	52	53	54	55	56	57	58	59	60	65	72	75	78	80	82	83	84	88	90	92	93	97	99	101	103	104	105	106	107	110	113	114	115	118	119	121	122	124	126	127	131	133	135	136	138	139	141	143	144	145	147	148	150	154	155	156	157	159	160	161	162	168	172	179	195	203	205	214
9	2	3	4	5	6	7	8	9	10	11	12	13	14	15	16	17	18	19	20	21	22	23	24	25	26	27	28	29	30	31	32	33	34	35	36	37	38	39	40	41	42	43	44	45	46	47	48	49	50	51	52	53	54	55	57	58	59	65	68	72	74	77	78	79	80	81	83	84	85	87	88	91	92	93	94	96	97	98	99	101	103	104	105	106	107	109	110	114	115	117	120	121	122	124	125	127	130	131	132	133	134	135	138	139	141	142	144	148	150	156	159	160	162	163	164	171	174	177	190	207	210	211
10	2	3	4	5	6	7	8	9	10	11	12	13	14	15	16	17	18	19	20	21	22	23	24	25	26	27	28	29	30	31	32	33	34	35	36	37	38	39	40	41	42	43	44	45	46	47	48	49	50	51	52	53	54	55	57	58	59	65	68	72	74	77	78	79	80	81	83	84	85	87	88	91	92	93	94	96	97	98	99	101	103	104	105	106	107	109	110	114	115	117	120	121	122	124	125	127	130	131	132	133	134	135	138	139	141	142	144	148	150	156	159	160	162	163	164	171	174	177	190	207	210	211
11	2	3	4	5	6	7	8	9	10	11	12	13	14	15	16	17	18	19	20	21	22	23	24	25	26	27	28	29	30	31	32	33	34	35	36	37	38	39	40	41	42	43	44	45	46	47	48	49	50	51	52	53	54	55	57	58	59	65	68	72	74	77	78	79	80	81	83	84	85	87	88	91	92	93	94	96	97	98	99	101	103	104	105	106	107	109	110	114	115	117	120	121	122	124	125	127	130	131	132	133	134	135	138	139	141	142	144	148	150	156	159	160	162	163	164	171	174	177	190	207	210	211
12	2	3	4	5	6	7	8	9	10	11	12	13	14	15	16	17	18	19	20	21	22	23	24	25	26	27	28	29	30	31	32	33	34	35	36	37	38	39	40	41	42	43	44	45	46	47	48	49	50	51	52	53	54	55	57	58	59	65	68	72	74	77	78	79	80	81	83	84	85	87	88	91	92	93	94	96	97	98	99	101	103	104	105	106	107	109	110	114	115	117	120	121	122	124	125	127	130	131	132	133	134	135	138	139	141	142	144	148	150	156	159	160	162	163	164	171	174	177	190	207	210	211
13	2	3	4	5	6	7	8	9	10	11	12	13	14	15	16	17	18	19	20	21	22	23	24	25	26	27	28	29	30	31	32	33	34	35	36	37	38	39	40	41	42	43	44	45	46	47	48	49	50	51	52	53	54	55	58	59	61	62	63	67	68	69	71	73	74	76	77	78	79	80	81	84	85	86	87	88	91	92	94	95	96	97	98	99	102	109	114	115	116	117	120	123	124	125	127	129	130	132	134	135	137	139	140	141	142	148	151	152	153	162	163	165	166	170	175	185	189	196	199	208	209
14	2	3	4	5	6	7	8	9	10	11	12	13	14	15	16	17	18	19	20	21	22	23	24	25	26	27	28	29	30	31	32	33	34	35	36	37	38	39	40	41	42	43	44	45	46	47	48	49	50	51	52	53	54	55	58	59	61	62	63	67	68	69	71	73	74	76	77	78	79	80	81	84	85	86	87	88	91	92	94	95	96	97	98	99	102	109	114	115	116	117	120	123	124	125	127	129	130	132	134	135	137	139	140	141	142	148	151	152	153	162	163	165	166	170	175	185	189	196	199	208	209
15	2	3	4	5	6	7	8	9	10	11	12	13	14	15	16	17	18	19	20	21	22	23	24	25	26	27	28	29	30	31	32	33	34	35	36	37	38	39	40	41	42	43	44	45	46	47	48	49	50	51	52	53	54	55	58	59	61	62	63	67	68	69	71	73	74	76	77	78	79	80	81	84	85	86	87	88	91	92	94	95	96	97	98	99	102	109	114	115	116	117	120	123	124	125	127	129	130	132	134	135	137	139	140	141	142	148	151	152	153	162	163	165	166	170	175	185	189	196	199	208	209
16	2	3	4	5	6	7	8	9	10	11	12	13	14	15	16	17	18	19	20	21	22	23	24	25	26	27	28	29	30	31	32	33	34	35	36	37	38	39	40	41	42	43	44	45	46	47	48	49	50	51	52	53	54	55	58	59	61	62	63	67	68	69	71	73	74	76	77	78	79	80	81	84	85	86	87	88	91	92	94	95	96	97	98	99	102	109	114	115	116	117	120	123	124	125	127	129	130	132	134	135	137	139	140	141	142	148	151	152	153	162	163	165	166	170	175	185	189	196	199	208	209
17	2	3	4	5	6	7	8	9	10	11	12	13	14	15	16	17	18	19	20	21	22	23	24	25	26	27	28	29	30	31	32	33	34	35	36	37	38	39	40	41	42	43	44	45	46	47	48	49	50	51	52	53	54	55	61	62	63	64	66	67	68	69	70	71	73	74	76	77	79	81	85	86	87	89	91	94	95	96	98	100	102	108	109	111	112	116	117	120	123	125	128	129	130	132	134	137	140	142	146	149	151	152	153	158	163	169	173	182	188	191	192	198	200	204	206	213	215
18	2	3	4	5	6	7	8	9	10	11	12	13	14	15	16	17	18	19	20	21	22	23	24	25	26	27	28	29	30	31	32	33	34	35	36	37	38	39	40	41	42	43	44	45	46	47	48	49	50	51	52	53	54	55	61	62	63	64	66	67	68	69	70	71	73	74	76	77	79	81	85	86	87	89	91	94	95	96	98	100	102	108	109	111	112	116	117	120	123	125	128	129	130	132	134	137	140	142	146	149	151	152	153	158	163	169	173	182	188	191	192	198	200	204	206	213	215
19	2	3	4	5	6	7	8	9	10	11	12	13	14	15	16	17	18	19	20	21	22	23	24	25	26	27	28	29	30	31	32	33	34	35	36	37	38	39	40	41	42	43	44	45	46	47	48	49	50	51	52	53	54	55	61	62	63	64	66	67	68	69	70	71	73	74	76	77	79	81	85	86	87	89	91	94	95	96	98	100	102	108	109	111	112	116	117	120	123	125	128	129	130	132	134	137	140	142	146	149	151	152	153	158	163	169	173	182	188	191	192	198	200	204	206	213	215
20	2	3	4	5	6	7	8	9	10	11	12	13	14	15	16	17	18	19	20	21	22	23	24	25	26	27	28	29	30	31	32	33	34	35	36	37	38	39	40	41	42	43	44	45	46	47	48	49	50	51	52	53	54	55	61	62	63	64	66	67	68	69	70	71	73	74	76	77	79	81	85	86	87	89	91	94	95	96	98	100	102	108	109	111	112	116	117	120	123	125	128	129	130	132	134	137	140	142	146	149	151	152	153	158	163	169	173	182	188	191	192	198	200	204	206	213	215
21	2	3	4	5	6	7	8	9	10	11	12	13	14	15	16	17	18	19	20	21	22	23	24	25	26	27	28	29	30	31	32	33	34	35	36	37	38	39	40	41	42	43	44	45	46	47	48	49	50	51	52	53	54	55	56	60	61	62	63	64	66	67	69	70	71	73	75	76	82	86	89	90	95	100	102	108	111	112	113	116	118	119	123	126	128	129	136	137	140	143	145	146	147	149	151	152	153	154	155	157	158	161	176	181	186	187	193	197	212	217
22	2	3	4	5	6	7	8	9	10	11	12	13	14	15	16	17	18	19	20	21	22	23	24	25	26	27	28	29	30	31	32	33	34	35	36	37	38	39	40	41	42	43	44	45	46	47	48	49	50	51	52	53	54	55	56	60	61	62	63	64	66	67	69	70	71	73	75	76	82	86	89	90	95	100	102	108	111	112	113	116	118	119	123	126	128	129	136	137	140	143	145	146	147	149	151	152	153	154	155	157	158	161	176	181	186	187	193	197	212	217
23	2	3	4	5	6	7	8	9	10	11	12	13	14	15	16	17	18	19	20	21	22	23	24	25	26	27	28	29	30	31	32	33	34	35	36	37	38	39	40	41	42	43	44	45	46	47	48	49	50	51	52	53	54	55	56	60	61	62	63	64	66	67	69	70	71	73	75	76	82	86	89	90	95	100	102	108	111	112	113	116	118	119	123	126	128	129	136	137	140	143	145	146	147	149	151	152	153	154	155	157	158	161	176	181	186	187	193	197	212	217
24	2	3	4	5	6	7	8	9	10	11	12	13	14	15	16	17	18	19	20	21	22	23	24	25	26	27	28	29	30	31	32	33	34	35	36	37	38	39	40	41	42	43	44	45	46	47	48	49	50	51	52	53	54	55	56	60	61	62	63	64	66	67	69	70	71	73	75	76	82	86	89	90	95	100	102	108	111	112	113	116	118	119	123	126	128	129	136	137	140	143	145	146	147	149	151	152	153	154	155	157	158	161	176	181	186	187	193	197	212	217
EOF
