SDVRPTW/PR19.sol
Route #1: 183 177 215 107 166 193 71 120 102
Route #2: 105 200 103 117 35 182 27 179 43 132 201
Route #3:
Route #4:
Route #5: 51 204 171 109 77 3 26 82 202 178
Route #6: 160 194 23 15 143 53 104 213 16 17 158 118 55 92
Route #7: 106 83 38 24 39 7 6 167 125 156 13 137
Route #8:
Route #9: 173 47 162 163 8 133 91 209 97 87 25 131 64 210
Route #10: 170 155 57 29 100 121 54 130 138 2 159 46 149 189 76
Route #11: 79 41 95 147 140 98 14 176 56 80 11 206 73
Route #12:
Route #13: 129 164 36 5 60 198 108 134 184 37 94
Route #14: 78 207 42 126 161 114 96 174 123 62 208 67 195
Route #15: 28 86 113 141 12 188 44 58 90 101 169 4 165
Route #16:
Route #17: 66 33 190 203 128 116 212 70 199 10 214 119 139
Route #18: 127 205 52 181 75 168 187 9 19 65 84 34 191 69 110 157
Route #19: 22 172 197 50 20 115 124 99 93 151 48 145
Route #20:
Route #21: 61 211 142 153 85 175 45 32 150 144 135 49 180 88 72 21
Route #22: 186 146 18 30 148 1 216 59 31 136 185 111 81
Route #23: 112 152 192 122 63 196 40 89 68 74 154
Route #24:
Cost: 3883941
